#Freezing Water

#Initialization
units real 
dimension 3 # 3D
atom_style full #Because charged
boundary p p p # periodic

#System definition
region box block -30 30 -30 30 -30 30
create_box 2 box bond/types 1 angle/types 1 extra/bond/per/atom 2 extra/angle/per/atom 1 extra/special/per/atom 2
#          create_box 2 = two atom types
#           bond/types 1 = one bond type (O-H)
#           angle/types 1 = 1 angle type (O-H)
#           extra/bond/per/atom 2 (O bonds with two Hs)
#           extra/angle/per/atom 1 = each H2O has one angle
#           extra/special/per/atom 2 = each of the two H atoms can have individual interactions?
#-------------------------------------------------------------------------------------------------------

#Settings
molecule H2O tip3p.mol
#https://docs.lammps.org/Howto_tip3p.html

mass 1 15.999 #(type 1 = O, type 2 = H)
mass 2 1.008

fix 1 all nvt temp 250.0 220.0 100.0 #controlled cooling
fix 2 all shake 0.0001 20 0 b 1 a 1 # (b 1 - bond type 1) (a 1 - angle type 1)

pair_style lj/cut/coul/long 2.5 #LJ + long-range Coulomb for 2.5 angstroms
kspace_style pppm 1.0e-4 #coulomb interactions beyond the cutoff

pair_coeff 1 1 0.1550 3.1536 # Sets LJ values epsilon, sigma (for O)
pair_coeff 2 2 0.0 1.0 # Sets LJ values epsilon, sigma (for H)

bond_style harmonic #harmonic/spring like bonds
bond_coeff 1 450.0 0.9572 #(1 = bond type) (450.0 = k [force constant]) (0.9572 = bond length)
angle_style harmonic
angle_coeff 1 55.0 104.52 #(1 = bond type) (55.0 = k [force constant]) (104.52 = angle)

create_atoms 0 random 600 12345 NULL mol H2O 12346 overlap 2.0 maxtry 30 # inserts water moleculess

#Monitoring
group H2O type 1 2
minimize 1.0e-4 1.0e-6 100 1000

reset_timestep 0

velocity all create 250.0 12345 mom yes rot yes #Velocity for 250 K (mom yes - removes net linear momentum) (rot yes - removes net rotation)
thermo 200
thermo_style custom step temp etotal vol density


dump traj all atom 100 dump_freezing_water.lammpstrj

#Run
timestep 1.0
run 60000
write_data freezing_water.data nocoeff